language Essence 1.3

letting class be function(1 --> 1, 2 --> 1, 3 --> 1, 4 --> 1, 5 --> 2, 6 --> 1, 7 --> 2, 8 --> 2)
letting deck_length be 8
letting deck_width be 68
letting length be function(1 --> 7, 2 --> 6, 3 --> 8, 4 --> 7, 5 --> 3, 6 --> 2, 7 --> 6, 8 --> 7)
letting n_classes be 2
letting n_containers be 8
letting separation be function()
letting width be function(1 --> 2, 2 --> 1, 3 --> 30, 4 --> 1, 5 --> 1, 6 --> 2, 7 --> 1, 8 --> 1)
